This is Ipopt version 3.13.4, running with linear solver ma27.

Number of nonzeros in equality constraint Jacobian...:  1720009
Number of nonzeros in inequality constraint Jacobian.:        0
Number of nonzeros in Lagrangian Hessian.............:  2360006

Total number of variables............................:   520009
                     variables with only lower bounds:        0
                variables with lower and upper bounds:        0
                     variables with only upper bounds:        0
Total number of equality constraints.................:   360009
Total number of inequality constraints...............:        0
        inequality constraints with only lower bounds:        0
   inequality constraints with lower and upper bounds:        0
        inequality constraints with only upper bounds:        0

iter    objective    inf_pr   inf_du lg(mu)  ||d||  lg(rg) alpha_du alpha_pr  ls
   0  7.6867677e+04 9.80e-02 1.00e+02  -1.0 0.00e+00    -  0.00e+00 0.00e+00   0
   1  2.3760340e+05 7.47e-06 3.77e+04  -1.0 1.03e+01    -  1.00e+00 1.00e+00h  1
   2  2.3759882e+05 2.33e-13 1.12e+00  -1.0 1.12e-04   4.0 1.00e+00 1.00e+00f  1
   3  1.9183266e+05 8.37e-06 2.06e-02  -1.0 2.24e+00    -  1.00e+00 1.00e+00f  1
   4  1.9183270e+05 5.45e-08 3.47e-06  -3.8 1.78e-02    -  1.00e+00 1.00e+00h  1
   5  1.9183270e+05 1.33e-15 2.44e-13  -8.6 2.16e-06    -  1.00e+00 1.00e+00h  1

Number of Iterations....: 5

                                   (scaled)                 (unscaled)
Objective...............:   9.5913952961201110e+04    1.9183270162005030e+05
Dual infeasibility......:   2.4360504932707805e-13    4.8722227890662239e-13
Constraint violation....:   1.3261960973842690e-15    1.3261960973842690e-15
Complementarity.........:   0.0000000000000000e+00    0.0000000000000000e+00
Overall NLP error.......:   2.4360504932707805e-13    4.8722227890662239e-13


Number of objective function evaluations             = 6
Number of objective gradient evaluations             = 6
Number of equality constraint evaluations            = 6
Number of inequality constraint evaluations          = 0
Number of equality constraint Jacobian evaluations   = 6
Number of inequality constraint Jacobian evaluations = 0
Number of Lagrangian Hessian evaluations             = 5
Total CPU secs in IPOPT (w/o function evaluations)   =      3.426
Total CPU secs in NLP function evaluations           =      3.097

EXIT: Optimal Solution Found.
